p wcnf 179 358 359 
1 36 177 0 
1 53 100 0 
1 12 170 0 
1 -38 -53 0 
1 14 -170 0 
1 86 -25 0 
1 -137 -91 0 
1 -34 -140 0 
1 -55 -26 0 
1 114 -76 0 
1 58 -77 0 
1 92 -139 0 
1 -6 -85 0 
1 -142 107 0 
1 23 -164 0 
1 49 -169 0 
1 27 -70 0 
1 -78 56 0 
1 -96 93 0 
1 -87 33 0 
1 -156 -144 0 
1 -170 56 0 
1 -177 -26 0 
1 156 18 0 
1 -142 36 0 
1 -20 74 0 
1 135 -26 0 
1 -58 20 0 
1 111 155 0 
1 -158 -29 0 
1 55 161 0 
1 -21 84 0 
1 -107 14 0 
1 177 -14 0 
1 -66 -146 0 
1 -45 -106 0 
1 -158 -70 0 
1 20 -77 0 
1 19 -163 0 
1 78 -141 0 
1 33 131 0 
1 -155 -54 0 
1 -64 14 0 
1 -59 -96 0 
1 -130 165 0 
1 -85 -143 0 
1 -162 -129 0 
1 166 -141 0 
1 169 2 0 
1 -81 62 0 
1 -46 78 0 
1 -63 163 0 
1 178 130 0 
1 160 173 0 
1 86 -133 0 
1 39 107 0 
1 -142 -82 0 
1 51 -15 0 
1 -96 -162 0 
1 5 -113 0 
1 -122 129 0 
1 139 -89 0 
1 60 38 0 
1 -102 54 0 
1 26 72 0 
1 -31 154 0 
1 -6 45 0 
1 -108 166 0 
1 163 -143 0 
1 126 -152 0 
1 -19 173 0 
1 48 -19 0 
1 35 -41 0 
1 13 -46 0 
1 -32 -54 0 
1 65 49 0 
1 8 148 0 
1 -8 21 0 
1 -164 -12 0 
1 -68 75 0 
1 128 159 0 
1 128 -148 0 
1 -62 75 0 
1 -136 36 0 
1 152 -137 0 
1 -93 151 0 
1 60 -49 0 
1 -43 -72 0 
1 44 75 0 
1 127 -177 0 
1 131 173 0 
1 150 87 0 
1 -169 50 0 
1 14 -5 0 
1 92 -145 0 
1 -147 9 0 
1 51 -177 0 
1 -51 -62 0 
1 94 -172 0 
1 166 79 0 
1 -76 12 0 
1 -25 -161 0 
1 -135 -20 0 
1 40 -143 0 
1 8 -81 0 
1 -154 -116 0 
1 34 53 0 
1 134 -172 0 
1 5 38 0 
1 129 166 0 
1 133 -138 0 
1 -159 166 0 
1 -40 10 0 
1 147 -138 0 
1 -144 48 0 
1 -68 143 0 
1 13 133 0 
1 -13 46 0 
1 -28 -66 0 
1 -20 -99 0 
1 -58 109 0 
1 -140 44 0 
1 173 -23 0 
1 -59 -154 0 
1 92 6 0 
1 91 124 0 
1 10 -37 0 
1 -57 169 0 
1 16 61 0 
1 -104 -127 0 
1 -154 82 0 
1 83 -88 0 
1 -78 -139 0 
1 165 -81 0 
1 142 83 0 
1 -1 -135 0 
1 -34 -14 0 
1 -88 72 0 
1 -160 4 0 
1 160 -142 0 
1 88 -99 0 
1 115 66 0 
1 9 -103 0 
1 -45 60 0 
1 29 -93 0 
1 16 111 0 
1 -40 62 0 
1 -53 110 0 
1 154 76 0 
1 -63 -138 0 
1 -178 -19 0 
1 37 24 0 
1 23 12 0 
1 168 77 0 
1 152 -19 0 
1 79 -63 0 
1 -93 -154 0 
1 -158 -108 0 
1 -11 -110 0 
1 33 -39 0 
1 9 -125 0 
1 -132 -161 0 
1 -166 -12 0 
1 76 -136 0 
1 79 -100 0 
1 108 105 0 
1 -113 -39 0 
1 -51 138 0 
1 153 -44 0 
1 72 134 0 
1 -135 -153 0 
1 114 162 0 
1 57 18 0 
1 -150 58 0 
1 34 38 0 
1 15 123 0 
1 3 68 0 
1 118 126 0 
1 -76 92 0 
1 -156 87 0 
1 86 -100 0 
1 -108 41 0 
1 -165 -84 0 
1 16 -97 0 
1 -75 -8 0 
1 -178 157 0 
1 -67 -65 0 
1 -152 54 0 
1 -109 53 0 
1 171 60 0 
1 -117 57 0 
1 -109 -171 0 
1 130 -127 0 
1 111 -46 0 
1 -98 89 0 
1 49 -110 0 
1 13 50 0 
1 -68 -91 0 
1 121 -124 0 
1 -116 123 0 
1 107 -171 0 
1 107 -85 0 
1 -159 -169 0 
1 30 119 0 
1 50 -6 0 
1 -107 -93 0 
1 -117 -58 0 
1 -175 -131 0 
1 -169 128 0 
1 73 96 0 
1 -141 -76 0 
1 107 -15 0 
1 -36 -91 0 
1 87 -112 0 
1 34 -55 0 
1 -173 -105 0 
1 37 -142 0 
1 -32 -59 0 
1 -95 -57 0 
1 148 106 0 
1 92 -61 0 
1 -103 104 0 
1 168 46 0 
1 93 69 0 
1 115 -69 0 
1 23 -25 0 
1 -5 -140 0 
1 91 32 0 
1 -55 -95 0 
1 -166 81 0 
1 171 -112 0 
1 73 41 0 
1 155 -175 0 
1 -14 -75 0 
1 161 -19 0 
1 -93 -16 0 
1 -44 -13 0 
1 62 -11 0 
1 -50 -84 0 
1 22 154 0 
1 -4 -100 0 
1 -70 40 0 
1 -84 39 0 
1 96 -118 0 
1 121 169 0 
1 -9 135 0 
1 150 -31 0 
1 -82 110 0 
1 82 -48 0 
1 125 171 0 
1 22 -49 0 
1 93 -24 0 
1 43 30 0 
1 -34 65 0 
1 66 -85 0 
1 -159 -123 0 
1 72 -96 0 
1 73 112 0 
1 -31 140 0 
1 12 88 0 
1 72 2 0 
1 148 -48 0 
1 144 115 0 
1 67 85 0 
1 -176 164 0 
1 -68 -20 0 
1 -103 -74 0 
1 -44 40 0 
1 111 151 0 
1 -134 -76 0 
1 -15 94 0 
1 58 -99 0 
1 -73 50 0 
1 11 74 0 
1 -32 140 0 
1 -103 -145 0 
1 54 132 0 
1 -32 -154 0 
1 127 -11 0 
1 -7 -86 0 
1 2 -177 0 
1 -50 -146 0 
1 167 120 0 
1 73 177 0 
1 -70 161 0 
1 -167 90 0 
1 177 141 0 
1 -122 161 0 
1 -47 -66 0 
1 -16 122 0 
1 -29 64 0 
1 -9 132 0 
1 -39 -26 0 
1 -58 -76 0 
1 -159 79 0 
1 -80 -159 0 
1 -60 -124 0 
1 -110 -112 0 
1 98 -2 0 
1 10 -37 0 
1 -93 -19 0 
1 90 -15 0 
1 -170 -168 0 
1 134 101 0 
1 7 99 0 
1 -164 5 0 
1 -173 106 0 
1 -41 94 0 
1 -83 -151 0 
1 90 -134 0 
1 -103 -2 0 
1 150 -161 0 
1 148 88 0 
1 -31 97 0 
1 -89 -51 0 
1 51 65 0 
1 -132 31 0 
1 -78 100 0 
1 -9 28 0 
1 2 31 0 
1 90 61 0 
1 -78 37 0 
1 -16 145 0 
1 -117 -45 0 
1 -4 -171 0 
1 136 125 0 
1 -55 176 0 
1 -152 -75 0 
1 61 24 0 
1 -19 33 0 
1 -84 4 0 
1 42 -164 0 
1 161 -81 0 
1 -78 76 0 
1 121 20 0 
1 119 128 0 
1 -11 68 0 
1 -170 140 0 
1 -104 62 0 
1 42 45 0 
1 -45 152 0 
1 -133 -111 0 
1 103 -171 0 
1 -177 -159 0 
1 -70 93 0 
1 18 139 0 
1 -49 107 0 
1 100 -3 0 
1 -107 119 0 
1 162 179 0 
1 -5 -120 0 
1 -14 -1 0 
1 78 173 0 
1 -108 -61 0 
1 -40 -172 0 
1 149 150 0 
1 100 -149 0 
1 156 -166 0 
